p edge 250 3235
e 0 9
e 0 20
e 0 24
e 0 31
e 0 34
e 0 37
e 0 46
e 0 56
e 0 60
e 0 116
e 0 121
e 0 124
e 0 149
e 0 160
e 0 166
e 0 171
e 0 175
e 0 189
e 0 206
e 0 223
e 0 224
e 0 226
e 0 232
e 0 236
e 1 4
e 1 10
e 1 13
e 1 15
e 1 21
e 1 47
e 1 49
e 1 57
e 1 84
e 1 85
e 1 86
e 1 87
e 1 96
e 1 138
e 1 152
e 1 153
e 1 156
e 1 157
e 1 163
e 1 172
e 1 187
e 1 205
e 1 207
e 1 211
e 1 215
e 1 221
e 1 229
e 1 246
e 1 248
e 2 6
e 2 10
e 2 22
e 2 32
e 2 44
e 2 52
e 2 60
e 2 74
e 2 76
e 2 81
e 2 93
e 2 102
e 2 104
e 2 116
e 2 117
e 2 125
e 2 134
e 2 150
e 2 176
e 2 194
e 2 198
e 2 202
e 2 223
e 2 230
e 3 12
e 3 41
e 3 43
e 3 45
e 3 48
e 3 54
e 3 71
e 3 72
e 3 84
e 3 91
e 3 96
e 3 101
e 3 104
e 3 129
e 3 137
e 3 142
e 3 164
e 3 168
e 3 178
e 3 215
e 3 224
e 4 7
e 4 11
e 4 29
e 4 36
e 4 43
e 4 53
e 4 56
e 4 57
e 4 82
e 4 83
e 4 88
e 4 90
e 4 109
e 4 112
e 4 114
e 4 124
e 4 128
e 4 133
e 4 137
e 4 154
e 4 169
e 4 189
e 4 208
e 4 211
e 4 216
e 4 217
e 4 218
e 4 220
e 4 225
e 4 239
e 4 246
e 5 7
e 5 11
e 5 12
e 5 19
e 5 26
e 5 42
e 5 63
e 5 87
e 5 95
e 5 122
e 5 135
e 5 138
e 5 141
e 5 153
e 5 167
e 5 176
e 5 182
e 5 199
e 5 201
e 5 220
e 5 225
e 5 229
e 5 239
e 5 247
e 5 248
e 6 12
e 6 27
e 6 29
e 6 39
e 6 55
e 6 62
e 6 80
e 6 81
e 6 91
e 6 109
e 6 116
e 6 122
e 6 126
e 6 134
e 6 137
e 6 142
e 6 157
e 6 170
e 6 172
e 6 188
e 6 192
e 6 207
e 6 213
e 6 222
e 6 223
e 6 238
e 6 248
e 6 249
e 7 8
e 7 20
e 7 25
e 7 47
e 7 49
e 7 51
e 7 55
e 7 56
e 7 69
e 7 70
e 7 75
e 7 76
e 7 87
e 7 89
e 7 91
e 7 93
e 7 96
e 7 125
e 7 131
e 7 136
e 7 138
e 7 139
e 7 147
e 7 153
e 7 155
e 7 167
e 7 180
e 7 190
e 7 197
e 7 199
e 7 200
e 7 206
e 7 219
e 7 225
e 7 226
e 7 241
e 8 21
e 8 48
e 8 67
e 8 68
e 8 69
e 8 72
e 8 78
e 8 80
e 8 127
e 8 136
e 8 137
e 8 153
e 8 158
e 8 166
e 8 177
e 8 181
e 8 185
e 8 200
e 8 214
e 8 224
e 8 228
e 8 244
e 9 25
e 9 30
e 9 32
e 9 59
e 9 89
e 9 90
e 9 97
e 9 110
e 9 115
e 9 138
e 9 139
e 9 156
e 9 162
e 9 172
e 9 173
e 9 182
e 9 183
e 9 184
e 9 187
e 9 191
e 9 201
e 9 225
e 10 17
e 10 39
e 10 52
e 10 58
e 10 78
e 10 79
e 10 80
e 10 81
e 10 89
e 10 109
e 10 111
e 10 113
e 10 115
e 10 122
e 10 173
e 10 179
e 10 180
e 10 187
e 10 200
e 10 206
e 10 207
e 10 228
e 10 248
e 11 16
e 11 28
e 11 40
e 11 44
e 11 48
e 11 51
e 11 85
e 11 94
e 11 102
e 11 104
e 11 106
e 11 125
e 11 137
e 11 141
e 11 154
e 11 170
e 11 178
e 11 200
e 11 205
e 11 212
e 11 223
e 12 13
e 12 17
e 12 19
e 12 30
e 12 31
e 12 38
e 12 39
e 12 52
e 12 88
e 12 93
e 12 129
e 12 147
e 12 161
e 12 169
e 12 175
e 12 180
e 12 187
e 12 194
e 12 196
e 12 206
e 12 217
e 12 228
e 12 237
e 12 249
e 13 21
e 13 26
e 13 42
e 13 50
e 13 51
e 13 63
e 13 81
e 13 93
e 13 103
e 13 111
e 13 115
e 13 117
e 13 126
e 13 133
e 13 135
e 13 142
e 13 177
e 13 178
e 13 183
e 13 194
e 13 203
e 13 209
e 13 224
e 13 232
e 13 236
e 14 24
e 14 30
e 14 31
e 14 33
e 14 34
e 14 54
e 14 61
e 14 94
e 14 99
e 14 100
e 14 110
e 14 111
e 14 119
e 14 123
e 14 129
e 14 152
e 14 153
e 14 161
e 14 177
e 14 183
e 14 208
e 14 213
e 14 214
e 14 222
e 14 223
e 15 19
e 15 24
e 15 30
e 15 46
e 15 50
e 15 62
e 15 75
e 15 100
e 15 139
e 15 146
e 15 149
e 15 162
e 15 166
e 15 167
e 15 169
e 15 202
e 15 209
e 15 213
e 15 225
e 15 230
e 15 240
e 15 244
e 15 246
e 16 24
e 16 31
e 16 33
e 16 34
e 16 37
e 16 38
e 16 46
e 16 83
e 16 91
e 16 106
e 16 122
e 16 136
e 16 164
e 16 172
e 16 181
e 16 201
e 16 227
e 17 22
e 17 35
e 17 36
e 17 44
e 17 45
e 17 48
e 17 50
e 17 61
e 17 68
e 17 78
e 17 84
e 17 107
e 17 138
e 17 139
e 17 152
e 17 157
e 17 166
e 17 169
e 17 184
e 17 187
e 17 195
e 17 213
e 17 216
e 17 220
e 17 247
e 18 29
e 18 31
e 18 52
e 18 57
e 18 88
e 18 93
e 18 102
e 18 107
e 18 122
e 18 132
e 18 139
e 18 140
e 18 146
e 18 162
e 18 169
e 18 209
e 18 210
e 18 214
e 18 219
e 18 223
e 18 224
e 18 227
e 18 233
e 18 245
e 18 249
e 19 22
e 19 29
e 19 39
e 19 52
e 19 60
e 19 67
e 19 69
e 19 71
e 19 81
e 19 90
e 19 112
e 19 124
e 19 142
e 19 149
e 19 152
e 19 161
e 19 167
e 19 182
e 19 188
e 19 200
e 19 203
e 19 217
e 19 220
e 19 225
e 19 226
e 19 232
e 19 238
e 20 25
e 20 32
e 20 44
e 20 67
e 20 76
e 20 86
e 20 114
e 20 118
e 20 135
e 20 136
e 20 146
e 20 151
e 20 157
e 20 168
e 20 174
e 20 176
e 20 179
e 20 184
e 20 188
e 20 209
e 20 214
e 20 218
e 20 238
e 21 29
e 21 34
e 21 64
e 21 86
e 21 98
e 21 100
e 21 125
e 21 146
e 21 156
e 21 157
e 21 163
e 21 174
e 21 193
e 21 194
e 21 209
e 21 213
e 21 214
e 21 245
e 21 248
e 22 31
e 22 32
e 22 50
e 22 58
e 22 62
e 22 86
e 22 97
e 22 103
e 22 104
e 22 113
e 22 122
e 22 132
e 22 136
e 22 146
e 22 165
e 22 179
e 22 180
e 22 187
e 22 193
e 22 200
e 22 207
e 22 219
e 22 221
e 22 225
e 22 230
e 22 232
e 22 247
e 23 26
e 23 29
e 23 33
e 23 64
e 23 65
e 23 72
e 23 76
e 23 80
e 23 88
e 23 103
e 23 111
e 23 137
e 23 147
e 23 156
e 23 159
e 23 170
e 23 175
e 23 183
e 23 186
e 23 192
e 23 196
e 23 204
e 23 231
e 24 51
e 24 63
e 24 75
e 24 84
e 24 85
e 24 87
e 24 97
e 24 102
e 24 110
e 24 117
e 24 119
e 24 122
e 24 126
e 24 135
e 24 143
e 24 162
e 24 163
e 24 164
e 24 169
e 24 170
e 24 176
e 24 193
e 24 194
e 24 205
e 24 210
e 24 223
e 24 224
e 25 39
e 25 41
e 25 43
e 25 50
e 25 51
e 25 56
e 25 63
e 25 66
e 25 80
e 25 82
e 25 86
e 25 91
e 25 94
e 25 140
e 25 147
e 25 149
e 25 154
e 25 156
e 25 168
e 25 187
e 25 194
e 25 206
e 25 218
e 25 233
e 25 244
e 25 245
e 26 38
e 26 71
e 26 74
e 26 84
e 26 85
e 26 90
e 26 113
e 26 135
e 26 148
e 26 152
e 26 173
e 26 174
e 26 175
e 26 178
e 26 180
e 26 186
e 26 189
e 26 196
e 26 200
e 26 208
e 26 209
e 26 213
e 26 215
e 26 216
e 26 217
e 26 230
e 26 233
e 26 242
e 27 40
e 27 44
e 27 45
e 27 50
e 27 63
e 27 76
e 27 85
e 27 93
e 27 108
e 27 113
e 27 118
e 27 132
e 27 135
e 27 140
e 27 141
e 27 149
e 27 153
e 27 155
e 27 159
e 27 163
e 27 173
e 27 186
e 27 190
e 27 194
e 27 217
e 27 237
e 27 240
e 27 244
e 28 40
e 28 41
e 28 44
e 28 46
e 28 48
e 28 69
e 28 80
e 28 82
e 28 94
e 28 96
e 28 115
e 28 130
e 28 133
e 28 150
e 28 170
e 28 174
e 28 179
e 28 180
e 28 186
e 28 189
e 28 203
e 28 228
e 28 244
e 29 31
e 29 33
e 29 35
e 29 47
e 29 54
e 29 74
e 29 75
e 29 86
e 29 87
e 29 90
e 29 91
e 29 111
e 29 129
e 29 131
e 29 146
e 29 150
e 29 152
e 29 163
e 29 164
e 29 178
e 29 186
e 29 199
e 29 238
e 29 240
e 30 41
e 30 46
e 30 60
e 30 66
e 30 69
e 30 74
e 30 75
e 30 86
e 30 92
e 30 102
e 30 126
e 30 129
e 30 139
e 30 150
e 30 157
e 30 161
e 30 162
e 30 174
e 30 194
e 30 197
e 30 202
e 30 219
e 30 222
e 30 227
e 30 246
e 31 37
e 31 40
e 31 43
e 31 52
e 31 66
e 31 78
e 31 86
e 31 88
e 31 89
e 31 90
e 31 98
e 31 130
e 31 137
e 31 142
e 31 143
e 31 154
e 31 162
e 31 178
e 31 185
e 31 193
e 31 207
e 31 213
e 31 222
e 31 233
e 31 248
e 32 46
e 32 48
e 32 49
e 32 65
e 32 72
e 32 75
e 32 79
e 32 86
e 32 90
e 32 108
e 32 120
e 32 125
e 32 129
e 32 160
e 32 163
e 32 188
e 32 189
e 32 190
e 32 194
e 32 199
e 32 201
e 32 204
e 32 206
e 32 217
e 32 218
e 32 230
e 32 245
e 33 34
e 33 39
e 33 41
e 33 44
e 33 61
e 33 66
e 33 92
e 33 108
e 33 129
e 33 131
e 33 141
e 33 174
e 33 175
e 33 178
e 33 180
e 33 185
e 33 222
e 33 226
e 33 231
e 33 232
e 33 234
e 33 242
e 33 247
e 34 65
e 34 71
e 34 93
e 34 94
e 34 97
e 34 104
e 34 114
e 34 121
e 34 132
e 34 140
e 34 146
e 34 151
e 34 154
e 34 183
e 34 207
e 34 220
e 34 223
e 34 232
e 34 233
e 34 249
e 35 52
e 35 53
e 35 66
e 35 92
e 35 109
e 35 113
e 35 130
e 35 175
e 35 205
e 35 245
e 36 37
e 36 38
e 36 41
e 36 64
e 36 69
e 36 70
e 36 77
e 36 93
e 36 110
e 36 121
e 36 124
e 36 128
e 36 130
e 36 134
e 36 162
e 36 163
e 36 196
e 36 207
e 36 232
e 36 235
e 36 238
e 36 245
e 36 246
e 37 43
e 37 49
e 37 50
e 37 57
e 37 64
e 37 93
e 37 94
e 37 110
e 37 111
e 37 131
e 37 149
e 37 169
e 37 171
e 37 198
e 37 215
e 37 218
e 37 220
e 37 226
e 37 239
e 38 47
e 38 48
e 38 56
e 38 62
e 38 63
e 38 66
e 38 67
e 38 68
e 38 74
e 38 86
e 38 88
e 38 91
e 38 97
e 38 108
e 38 121
e 38 134
e 38 138
e 38 141
e 38 154
e 38 188
e 38 192
e 38 193
e 38 200
e 38 204
e 38 214
e 38 215
e 38 221
e 38 238
e 38 247
e 39 43
e 39 50
e 39 52
e 39 53
e 39 56
e 39 59
e 39 62
e 39 94
e 39 103
e 39 131
e 39 133
e 39 135
e 39 139
e 39 152
e 39 161
e 39 164
e 39 165
e 39 177
e 39 224
e 39 231
e 39 236
e 39 237
e 40 47
e 40 78
e 40 105
e 40 108
e 40 115
e 40 120
e 40 132
e 40 137
e 40 138
e 40 140
e 40 155
e 40 173
e 40 208
e 40 216
e 40 234
e 40 242
e 40 249
e 41 73
e 41 78
e 41 99
e 41 100
e 41 108
e 41 109
e 41 111
e 41 116
e 41 138
e 41 139
e 41 142
e 41 147
e 41 148
e 41 172
e 41 196
e 41 199
e 41 202
e 41 209
e 41 214
e 41 218
e 41 221
e 41 232
e 41 237
e 41 240
e 42 44
e 42 51
e 42 57
e 42 63
e 42 64
e 42 94
e 42 95
e 42 105
e 42 115
e 42 116
e 42 136
e 42 142
e 42 153
e 42 164
e 42 178
e 42 181
e 42 185
e 42 187
e 42 188
e 42 189
e 42 191
e 42 217
e 42 222
e 42 224
e 42 235
e 42 240
e 42 241
e 43 47
e 43 50
e 43 68
e 43 70
e 43 73
e 43 80
e 43 87
e 43 96
e 43 120
e 43 132
e 43 136
e 43 149
e 43 155
e 43 156
e 43 172
e 43 173
e 43 178
e 43 180
e 43 186
e 43 187
e 43 189
e 43 190
e 43 209
e 43 210
e 43 211
e 43 212
e 43 220
e 43 235
e 43 249
e 44 46
e 44 57
e 44 72
e 44 77
e 44 84
e 44 86
e 44 135
e 44 141
e 44 142
e 44 151
e 44 161
e 44 164
e 44 170
e 44 198
e 44 224
e 44 231
e 44 239
e 44 241
e 44 249
e 45 53
e 45 60
e 45 81
e 45 82
e 45 90
e 45 91
e 45 105
e 45 114
e 45 117
e 45 120
e 45 136
e 45 137
e 45 146
e 45 148
e 45 159
e 45 171
e 45 178
e 45 193
e 45 218
e 45 219
e 45 223
e 45 249
e 46 49
e 46 51
e 46 65
e 46 79
e 46 84
e 46 87
e 46 98
e 46 109
e 46 111
e 46 116
e 46 117
e 46 125
e 46 127
e 46 129
e 46 162
e 46 163
e 46 183
e 46 214
e 46 216
e 46 246
e 47 51
e 47 58
e 47 59
e 47 61
e 47 65
e 47 104
e 47 136
e 47 166
e 47 174
e 47 186
e 47 193
e 47 203
e 47 211
e 47 232
e 47 235
e 47 242
e 47 249
e 48 52
e 48 56
e 48 90
e 48 134
e 48 141
e 48 165
e 48 166
e 48 174
e 48 176
e 48 193
e 48 195
e 48 216
e 48 233
e 48 239
e 48 246
e 49 50
e 49 61
e 49 77
e 49 84
e 49 88
e 49 129
e 49 140
e 49 147
e 49 154
e 49 158
e 49 161
e 49 165
e 49 173
e 49 176
e 49 178
e 49 187
e 49 203
e 49 214
e 49 223
e 49 240
e 49 249
e 50 63
e 50 72
e 50 77
e 50 94
e 50 99
e 50 120
e 50 123
e 50 146
e 50 160
e 50 169
e 50 175
e 50 180
e 50 183
e 50 187
e 50 193
e 50 194
e 50 200
e 50 204
e 50 207
e 50 209
e 50 210
e 50 237
e 50 241
e 50 247
e 51 54
e 51 55
e 51 64
e 51 68
e 51 88
e 51 99
e 51 101
e 51 108
e 51 125
e 51 126
e 51 128
e 51 134
e 51 148
e 51 160
e 51 161
e 51 173
e 51 186
e 51 199
e 51 210
e 51 214
e 51 218
e 51 223
e 51 225
e 51 232
e 51 247
e 52 55
e 52 60
e 52 77
e 52 89
e 52 90
e 52 105
e 52 112
e 52 172
e 52 173
e 52 175
e 52 179
e 52 180
e 52 196
e 52 206
e 52 210
e 52 211
e 52 216
e 52 233
e 52 234
e 53 59
e 53 68
e 53 72
e 53 111
e 53 123
e 53 143
e 53 147
e 53 171
e 53 172
e 53 180
e 53 194
e 53 197
e 53 201
e 53 203
e 53 215
e 53 222
e 54 59
e 54 61
e 54 69
e 54 103
e 54 106
e 54 111
e 54 112
e 54 113
e 54 119
e 54 129
e 54 133
e 54 138
e 54 140
e 54 146
e 54 154
e 54 177
e 54 182
e 54 183
e 54 187
e 54 188
e 54 191
e 54 199
e 54 221
e 54 227
e 54 231
e 54 240
e 55 59
e 55 60
e 55 81
e 55 106
e 55 116
e 55 123
e 55 125
e 55 135
e 55 148
e 55 151
e 55 157
e 55 172
e 55 180
e 55 189
e 55 193
e 55 206
e 55 215
e 55 226
e 55 242
e 55 245
e 56 59
e 56 62
e 56 80
e 56 109
e 56 122
e 56 123
e 56 141
e 56 142
e 56 151
e 56 159
e 56 166
e 56 193
e 56 206
e 56 212
e 56 214
e 56 215
e 56 222
e 56 228
e 56 243
e 56 244
e 56 245
e 57 58
e 57 59
e 57 76
e 57 80
e 57 93
e 57 95
e 57 99
e 57 104
e 57 110
e 57 111
e 57 114
e 57 120
e 57 136
e 57 138
e 57 139
e 57 162
e 57 167
e 57 170
e 57 176
e 57 182
e 57 192
e 57 194
e 57 197
e 57 221
e 57 222
e 57 223
e 57 236
e 57 242
e 58 69
e 58 75
e 58 83
e 58 85
e 58 89
e 58 91
e 58 94
e 58 103
e 58 116
e 58 120
e 58 136
e 58 151
e 58 152
e 58 169
e 58 181
e 58 192
e 58 195
e 58 207
e 58 214
e 58 222
e 58 241
e 58 244
e 59 65
e 59 80
e 59 95
e 59 104
e 59 116
e 59 118
e 59 120
e 59 144
e 59 145
e 59 167
e 59 176
e 59 181
e 59 184
e 59 186
e 59 196
e 59 199
e 59 206
e 59 214
e 59 219
e 59 238
e 59 239
e 60 62
e 60 76
e 60 87
e 60 90
e 60 92
e 60 94
e 60 107
e 60 111
e 60 116
e 60 149
e 60 171
e 60 177
e 60 178
e 60 179
e 60 180
e 60 183
e 60 185
e 60 218
e 60 229
e 60 232
e 60 233
e 61 68
e 61 75
e 61 87
e 61 94
e 61 101
e 61 105
e 61 121
e 61 129
e 61 133
e 61 143
e 61 160
e 61 180
e 61 203
e 61 207
e 61 210
e 61 217
e 61 236
e 61 238
e 62 63
e 62 67
e 62 72
e 62 74
e 62 79
e 62 98
e 62 100
e 62 107
e 62 111
e 62 122
e 62 135
e 62 140
e 62 146
e 62 152
e 62 157
e 62 162
e 62 166
e 62 182
e 62 189
e 62 194
e 62 208
e 62 210
e 62 215
e 62 239
e 62 241
e 62 244
e 63 73
e 63 78
e 63 90
e 63 91
e 63 96
e 63 104
e 63 110
e 63 136
e 63 156
e 63 157
e 63 201
e 63 203
e 63 216
e 63 222
e 63 228
e 63 233
e 64 84
e 64 86
e 64 90
e 64 91
e 64 99
e 64 110
e 64 117
e 64 120
e 64 130
e 64 131
e 64 132
e 64 136
e 64 139
e 64 142
e 64 177
e 64 183
e 64 190
e 64 195
e 64 210
e 64 217
e 64 235
e 64 240
e 65 68
e 65 77
e 65 78
e 65 82
e 65 92
e 65 100
e 65 117
e 65 120
e 65 124
e 65 140
e 65 144
e 65 153
e 65 155
e 65 161
e 65 166
e 65 173
e 65 180
e 65 182
e 65 192
e 65 199
e 65 218
e 65 231
e 65 235
e 65 247
e 66 67
e 66 79
e 66 80
e 66 82
e 66 91
e 66 92
e 66 99
e 66 113
e 66 115
e 66 118
e 66 128
e 66 163
e 66 170
e 66 173
e 66 174
e 66 175
e 66 184
e 66 190
e 66 195
e 66 197
e 66 204
e 66 213
e 66 216
e 66 222
e 66 228
e 66 230
e 66 239
e 66 241
e 66 242
e 66 246
e 66 249
e 67 71
e 67 77
e 67 81
e 67 92
e 67 100
e 67 118
e 67 127
e 67 141
e 67 144
e 67 148
e 67 165
e 67 171
e 67 191
e 67 199
e 67 205
e 67 216
e 67 218
e 67 221
e 67 222
e 67 247
e 67 248
e 68 100
e 68 103
e 68 109
e 68 112
e 68 122
e 68 123
e 68 150
e 68 164
e 68 186
e 68 188
e 68 209
e 68 225
e 68 228
e 68 230
e 69 75
e 69 76
e 69 89
e 69 111
e 69 112
e 69 114
e 69 122
e 69 123
e 69 129
e 69 136
e 69 143
e 69 148
e 69 193
e 69 194
e 69 197
e 69 215
e 69 231
e 70 80
e 70 91
e 70 103
e 70 109
e 70 129
e 70 142
e 70 145
e 70 151
e 70 175
e 70 177
e 70 178
e 70 187
e 70 190
e 70 200
e 70 203
e 70 242
e 71 100
e 71 109
e 71 123
e 71 133
e 71 141
e 71 153
e 71 168
e 71 185
e 71 194
e 71 201
e 71 206
e 71 223
e 71 224
e 71 228
e 72 102
e 72 112
e 72 128
e 72 133
e 72 143
e 72 148
e 72 153
e 72 156
e 72 160
e 72 172
e 72 177
e 72 196
e 72 203
e 72 204
e 72 247
e 73 90
e 73 98
e 73 99
e 73 112
e 73 125
e 73 128
e 73 142
e 73 167
e 73 185
e 73 192
e 73 207
e 73 210
e 73 238
e 73 245
e 74 87
e 74 89
e 74 101
e 74 112
e 74 123
e 74 135
e 74 154
e 74 162
e 74 169
e 74 182
e 74 184
e 74 189
e 74 196
e 74 201
e 74 203
e 74 204
e 74 220
e 75 82
e 75 86
e 75 92
e 75 95
e 75 102
e 75 121
e 75 132
e 75 133
e 75 152
e 75 161
e 75 178
e 75 188
e 75 191
e 75 192
e 75 194
e 75 205
e 75 209
e 75 225
e 75 228
e 75 233
e 75 239
e 75 241
e 75 246
e 75 247
e 76 82
e 76 86
e 76 106
e 76 107
e 76 113
e 76 115
e 76 121
e 76 134
e 76 143
e 76 145
e 76 148
e 76 163
e 76 182
e 76 184
e 76 185
e 76 186
e 76 199
e 76 206
e 76 220
e 76 221
e 76 224
e 76 225
e 76 229
e 77 81
e 77 84
e 77 90
e 77 118
e 77 119
e 77 120
e 77 126
e 77 149
e 77 152
e 77 162
e 77 166
e 77 167
e 77 177
e 77 182
e 77 194
e 77 195
e 77 204
e 77 223
e 77 225
e 78 87
e 78 89
e 78 99
e 78 118
e 78 133
e 78 144
e 78 156
e 78 158
e 78 186
e 78 210
e 78 227
e 78 230
e 78 232
e 78 246
e 79 81
e 79 106
e 79 112
e 79 122
e 79 125
e 79 128
e 79 150
e 79 170
e 79 175
e 79 193
e 79 205
e 79 211
e 79 213
e 79 222
e 79 238
e 79 243
e 79 246
e 80 88
e 80 117
e 80 130
e 80 132
e 80 137
e 80 148
e 80 153
e 80 160
e 80 163
e 80 164
e 80 175
e 80 185
e 80 187
e 80 191
e 80 197
e 80 208
e 81 92
e 81 102
e 81 115
e 81 124
e 81 137
e 81 146
e 81 158
e 81 161
e 81 173
e 81 196
e 81 203
e 81 208
e 81 212
e 81 227
e 81 237
e 82 87
e 82 88
e 82 99
e 82 104
e 82 106
e 82 121
e 82 127
e 82 133
e 82 145
e 82 153
e 82 171
e 82 177
e 82 185
e 82 192
e 82 196
e 82 223
e 82 231
e 82 232
e 82 243
e 83 85
e 83 86
e 83 120
e 83 122
e 83 127
e 83 130
e 83 134
e 83 139
e 83 145
e 83 170
e 83 172
e 83 179
e 83 197
e 83 207
e 83 211
e 83 228
e 83 237
e 83 247
e 84 90
e 84 93
e 84 99
e 84 107
e 84 131
e 84 172
e 84 179
e 84 203
e 84 204
e 84 220
e 84 236
e 84 248
e 85 86
e 85 90
e 85 92
e 85 105
e 85 122
e 85 141
e 85 158
e 85 162
e 85 177
e 85 189
e 85 210
e 85 216
e 85 226
e 85 228
e 85 230
e 85 234
e 86 96
e 86 101
e 86 109
e 86 118
e 86 155
e 86 179
e 86 204
e 86 226
e 86 232
e 86 238
e 86 243
e 87 117
e 87 139
e 87 141
e 87 163
e 87 178
e 87 191
e 87 201
e 87 211
e 87 233
e 87 249
e 88 99
e 88 103
e 88 109
e 88 128
e 88 140
e 88 141
e 88 147
e 88 158
e 88 164
e 88 196
e 88 202
e 88 207
e 88 212
e 88 213
e 88 226
e 88 240
e 88 244
e 89 97
e 89 107
e 89 136
e 89 154
e 89 165
e 89 172
e 89 182
e 89 183
e 89 226
e 89 240
e 90 110
e 90 118
e 90 124
e 90 144
e 90 161
e 90 162
e 90 181
e 90 194
e 90 203
e 90 207
e 90 215
e 90 218
e 90 230
e 90 232
e 91 111
e 91 112
e 91 125
e 91 126
e 91 140
e 91 158
e 91 162
e 91 164
e 91 171
e 91 190
e 91 193
e 91 194
e 91 216
e 91 220
e 91 224
e 91 228
e 91 234
e 91 240
e 91 247
e 92 96
e 92 97
e 92 117
e 92 124
e 92 128
e 92 130
e 92 134
e 92 162
e 92 173
e 92 176
e 92 195
e 92 197
e 92 208
e 92 231
e 92 235
e 92 248
e 93 107
e 93 108
e 93 119
e 93 122
e 93 127
e 93 130
e 93 138
e 93 143
e 93 159
e 93 167
e 93 191
e 93 202
e 93 207
e 93 236
e 93 248
e 94 101
e 94 103
e 94 134
e 94 155
e 94 160
e 94 170
e 94 182
e 94 192
e 94 205
e 94 206
e 94 208
e 94 213
e 94 215
e 94 218
e 94 236
e 94 241
e 95 96
e 95 98
e 95 116
e 95 119
e 95 122
e 95 131
e 95 139
e 95 148
e 95 174
e 95 177
e 95 194
e 95 203
e 95 206
e 95 214
e 95 223
e 95 227
e 95 231
e 95 235
e 95 241
e 95 246
e 96 97
e 96 100
e 96 108
e 96 111
e 96 115
e 96 129
e 96 132
e 96 148
e 96 149
e 96 150
e 96 161
e 96 195
e 96 209
e 96 224
e 96 226
e 96 241
e 97 102
e 97 127
e 97 156
e 97 159
e 97 160
e 97 161
e 97 167
e 97 169
e 97 174
e 97 175
e 97 183
e 97 195
e 97 204
e 97 207
e 97 219
e 97 223
e 97 227
e 97 241
e 97 242
e 97 246
e 97 249
e 98 114
e 98 130
e 98 133
e 98 148
e 98 205
e 98 206
e 98 226
e 98 228
e 98 230
e 98 241
e 98 244
e 98 246
e 99 103
e 99 106
e 99 108
e 99 113
e 99 119
e 99 129
e 99 130
e 99 150
e 99 160
e 99 166
e 99 170
e 99 173
e 99 178
e 99 184
e 99 195
e 99 204
e 99 205
e 99 212
e 99 224
e 99 228
e 99 235
e 99 242
e 100 110
e 100 111
e 100 114
e 100 129
e 100 135
e 100 140
e 100 144
e 100 147
e 100 154
e 100 160
e 100 161
e 100 173
e 100 197
e 100 215
e 100 228
e 100 232
e 100 235
e 101 103
e 101 113
e 101 117
e 101 143
e 101 159
e 101 165
e 101 173
e 101 179
e 101 185
e 101 188
e 101 191
e 101 197
e 101 198
e 101 214
e 101 237
e 102 111
e 102 124
e 102 130
e 102 148
e 102 150
e 102 156
e 102 161
e 102 164
e 102 212
e 102 213
e 102 217
e 102 218
e 103 111
e 103 123
e 103 136
e 103 142
e 103 148
e 103 150
e 103 163
e 103 166
e 103 185
e 103 190
e 103 206
e 103 207
e 103 209
e 103 225
e 103 227
e 103 228
e 103 235
e 103 239
e 103 241
e 104 116
e 104 130
e 104 135
e 104 160
e 104 163
e 104 170
e 104 178
e 104 179
e 104 189
e 104 191
e 104 192
e 104 216
e 104 221
e 104 222
e 104 235
e 104 236
e 105 114
e 105 116
e 105 124
e 105 147
e 105 152
e 105 155
e 105 186
e 105 192
e 105 208
e 105 211
e 105 217
e 105 220
e 105 223
e 105 243
e 106 126
e 106 136
e 106 153
e 106 159
e 106 174
e 106 188
e 106 194
e 106 226
e 106 249
e 107 114
e 107 119
e 107 120
e 107 121
e 107 137
e 107 142
e 107 149
e 107 167
e 107 174
e 107 177
e 107 186
e 107 217
e 107 219
e 107 239
e 107 243
e 108 110
e 108 124
e 108 125
e 108 131
e 108 132
e 108 133
e 108 134
e 108 146
e 108 154
e 108 159
e 108 177
e 108 179
e 108 186
e 108 206
e 109 126
e 109 141
e 109 151
e 109 163
e 109 174
e 109 183
e 109 197
e 109 201
e 109 215
e 109 220
e 109 225
e 109 226
e 109 229
e 109 230
e 109 235
e 110 111
e 110 132
e 110 141
e 110 143
e 110 144
e 110 152
e 110 153
e 110 167
e 110 177
e 110 199
e 110 204
e 110 224
e 111 118
e 111 136
e 111 153
e 111 165
e 111 174
e 111 182
e 111 189
e 111 196
e 111 198
e 111 222
e 111 225
e 111 232
e 111 246
e 112 113
e 112 115
e 112 119
e 112 120
e 112 123
e 112 148
e 112 168
e 112 170
e 112 176
e 112 183
e 112 189
e 112 198
e 112 209
e 112 231
e 112 241
e 113 126
e 113 131
e 113 141
e 113 142
e 113 162
e 113 170
e 113 175
e 113 178
e 113 186
e 113 207
e 113 208
e 113 215
e 113 226
e 113 242
e 114 117
e 114 124
e 114 134
e 114 161
e 114 163
e 114 178
e 114 197
e 114 199
e 114 213
e 114 220
e 114 228
e 114 230
e 114 239
e 115 145
e 115 149
e 115 153
e 115 157
e 115 161
e 115 170
e 115 178
e 115 182
e 115 184
e 115 187
e 115 203
e 115 212
e 115 226
e 115 236
e 115 243
e 116 120
e 116 126
e 116 128
e 116 131
e 116 134
e 116 144
e 116 150
e 116 161
e 116 166
e 116 178
e 116 197
e 116 201
e 116 205
e 116 233
e 117 129
e 117 134
e 117 136
e 117 140
e 117 145
e 117 161
e 117 170
e 117 190
e 117 210
e 117 221
e 118 121
e 118 130
e 118 134
e 118 136
e 118 138
e 118 139
e 118 144
e 118 148
e 118 164
e 118 168
e 118 189
e 118 199
e 118 203
e 118 215
e 118 236
e 118 242
e 118 244
e 119 138
e 119 163
e 119 182
e 119 189
e 119 191
e 119 193
e 119 198
e 119 207
e 119 215
e 119 225
e 119 235
e 119 238
e 119 239
e 120 132
e 120 142
e 120 196
e 120 199
e 120 203
e 120 219
e 120 225
e 120 227
e 120 231
e 120 240
e 121 122
e 121 130
e 121 131
e 121 149
e 121 156
e 121 157
e 121 181
e 121 193
e 121 195
e 121 205
e 121 234
e 121 236
e 121 240
e 122 134
e 122 141
e 122 153
e 122 173
e 122 184
e 122 192
e 122 202
e 122 223
e 122 248
e 122 249
e 123 125
e 123 137
e 123 150
e 123 156
e 123 206
e 123 224
e 123 230
e 123 232
e 123 247
e 123 249
e 124 146
e 124 152
e 124 155
e 124 156
e 124 160
e 124 185
e 124 202
e 124 208
e 124 219
e 124 230
e 124 234
e 125 139
e 125 153
e 125 161
e 125 192
e 125 201
e 125 208
e 125 237
e 125 243
e 126 162
e 126 167
e 126 183
e 126 191
e 126 213
e 126 215
e 126 220
e 126 221
e 126 232
e 126 249
e 127 131
e 127 176
e 127 182
e 127 190
e 127 197
e 127 199
e 127 202
e 127 206
e 127 210
e 127 211
e 127 214
e 127 218
e 127 221
e 127 228
e 127 245
e 128 135
e 128 139
e 128 157
e 128 167
e 128 172
e 128 186
e 128 189
e 128 196
e 128 213
e 128 216
e 128 238
e 128 245
e 129 134
e 129 140
e 129 142
e 129 146
e 129 151
e 129 162
e 129 177
e 129 190
e 129 207
e 129 210
e 130 132
e 130 147
e 130 154
e 130 155
e 130 162
e 130 176
e 130 185
e 130 188
e 130 190
e 130 195
e 130 203
e 130 205
e 130 207
e 130 208
e 130 235
e 130 239
e 130 244
e 131 145
e 131 158
e 131 161
e 131 162
e 131 166
e 131 180
e 131 183
e 131 188
e 131 218
e 131 235
e 131 236
e 131 240
e 132 168
e 132 174
e 132 176
e 132 186
e 132 191
e 132 195
e 132 203
e 132 222
e 132 224
e 132 232
e 132 245
e 133 142
e 133 155
e 133 163
e 133 170
e 133 175
e 133 181
e 133 182
e 133 196
e 133 214
e 133 217
e 133 225
e 133 247
e 133 249
e 134 146
e 134 151
e 134 153
e 134 180
e 134 182
e 134 184
e 134 187
e 134 203
e 134 213
e 134 214
e 134 224
e 134 235
e 134 242
e 134 244
e 134 247
e 135 142
e 135 147
e 135 155
e 135 171
e 135 172
e 135 174
e 135 184
e 135 193
e 135 198
e 135 204
e 135 205
e 135 211
e 135 247
e 136 159
e 136 175
e 136 178
e 136 184
e 136 197
e 136 209
e 136 210
e 136 218
e 136 236
e 136 241
e 136 244
e 137 150
e 137 156
e 137 159
e 137 160
e 137 161
e 137 168
e 137 175
e 137 176
e 137 211
e 137 217
e 137 221
e 137 223
e 137 227
e 137 242
e 138 144
e 138 154
e 138 166
e 138 176
e 138 222
e 138 237
e 138 249
e 139 193
e 139 204
e 139 205
e 139 214
e 139 215
e 139 219
e 139 220
e 139 226
e 139 237
e 139 241
e 139 249
e 140 143
e 140 154
e 140 175
e 140 179
e 140 181
e 140 183
e 140 188
e 140 193
e 140 210
e 140 215
e 140 222
e 140 248
e 141 165
e 141 174
e 141 178
e 141 188
e 141 194
e 141 210
e 141 222
e 141 227
e 141 234
e 141 237
e 141 239
e 141 243
e 141 244
e 142 147
e 142 156
e 142 160
e 142 166
e 142 200
e 142 209
e 142 219
e 142 221
e 142 222
e 142 239
e 143 150
e 143 151
e 143 196
e 143 200
e 143 201
e 143 211
e 143 245
e 143 247
e 143 248
e 144 148
e 144 163
e 144 168
e 144 173
e 144 180
e 144 199
e 144 201
e 144 206
e 144 211
e 144 212
e 144 231
e 144 249
e 145 166
e 145 183
e 145 189
e 145 219
e 145 225
e 145 230
e 145 231
e 145 238
e 145 240
e 146 164
e 146 167
e 146 180
e 146 181
e 146 192
e 146 203
e 146 214
e 146 226
e 146 228
e 146 243
e 146 248
e 147 159
e 147 166
e 147 187
e 147 203
e 147 205
e 148 158
e 148 161
e 148 163
e 148 173
e 148 174
e 148 180
e 148 220
e 148 221
e 148 229
e 148 232
e 148 235
e 148 237
e 149 150
e 149 155
e 149 179
e 149 182
e 149 188
e 149 207
e 149 217
e 149 222
e 149 223
e 149 229
e 149 239
e 149 245
e 149 249
e 150 154
e 150 177
e 150 182
e 150 193
e 150 197
e 150 221
e 150 230
e 150 246
e 150 249
e 151 155
e 151 159
e 151 167
e 151 172
e 151 173
e 151 182
e 151 199
e 151 200
e 151 210
e 151 223
e 151 245
e 151 248
e 152 154
e 152 163
e 152 174
e 152 198
e 152 202
e 152 210
e 152 211
e 152 215
e 152 229
e 152 241
e 152 248
e 152 249
e 153 157
e 153 173
e 153 174
e 153 176
e 153 180
e 153 182
e 153 199
e 153 202
e 153 205
e 153 207
e 153 208
e 153 209
e 153 219
e 153 242
e 153 247
e 153 248
e 154 188
e 154 197
e 154 214
e 154 232
e 154 237
e 154 243
e 154 248
e 155 159
e 155 165
e 155 184
e 155 185
e 155 189
e 155 200
e 155 204
e 155 207
e 155 227
e 155 243
e 155 249
e 156 165
e 156 169
e 156 177
e 156 186
e 156 187
e 156 208
e 156 232
e 157 165
e 157 187
e 157 201
e 157 209
e 157 218
e 157 228
e 157 245
e 157 248
e 158 172
e 158 199
e 158 206
e 158 220
e 158 234
e 159 160
e 159 165
e 159 170
e 159 175
e 159 179
e 159 190
e 159 191
e 159 201
e 159 229
e 159 238
e 159 244
e 160 173
e 160 174
e 160 178
e 160 187
e 160 199
e 160 202
e 160 215
e 160 249
e 161 168
e 161 203
e 161 206
e 161 222
e 161 225
e 161 226
e 161 233
e 161 242
e 161 243
e 162 169
e 162 175
e 162 180
e 162 184
e 162 203
e 162 233
e 162 236
e 163 164
e 163 166
e 163 171
e 163 177
e 163 180
e 163 190
e 163 193
e 163 198
e 163 211
e 163 218
e 163 221
e 163 227
e 163 235
e 164 172
e 164 216
e 164 219
e 164 227
e 164 229
e 164 231
e 164 233
e 164 238
e 164 240
e 164 241
e 164 246
e 165 166
e 165 179
e 165 182
e 165 184
e 165 186
e 165 188
e 165 190
e 165 192
e 165 198
e 165 201
e 165 214
e 165 215
e 165 217
e 165 228
e 165 235
e 165 245
e 166 170
e 166 190
e 166 194
e 166 208
e 166 213
e 166 217
e 166 222
e 166 224
e 166 245
e 167 171
e 167 177
e 167 178
e 167 179
e 167 189
e 167 206
e 167 209
e 167 237
e 167 240
e 167 248
e 168 173
e 168 191
e 168 197
e 168 201
e 168 205
e 168 209
e 168 216
e 168 224
e 168 230
e 168 234
e 169 182
e 169 183
e 169 188
e 169 198
e 169 217
e 169 233
e 170 177
e 170 187
e 170 190
e 170 201
e 170 206
e 170 209
e 170 217
e 170 221
e 170 224
e 170 235
e 171 179
e 171 188
e 171 199
e 171 211
e 171 214
e 171 245
e 172 208
e 172 212
e 172 213
e 172 219
e 172 221
e 172 237
e 172 238
e 172 242
e 172 244
e 172 247
e 173 188
e 173 202
e 173 203
e 173 219
e 173 220
e 173 228
e 173 230
e 174 180
e 174 185
e 174 191
e 174 193
e 174 194
e 174 203
e 174 211
e 174 235
e 174 242
e 175 179
e 175 192
e 175 197
e 175 207
e 175 218
e 175 221
e 175 247
e 176 180
e 176 194
e 176 198
e 176 216
e 176 234
e 176 246
e 176 247
e 176 248
e 177 192
e 177 199
e 177 210
e 177 223
e 177 239
e 177 242
e 177 244
e 177 248
e 178 186
e 178 200
e 179 182
e 179 184
e 179 185
e 179 189
e 179 190
e 179 201
e 179 205
e 179 211
e 179 212
e 179 247
e 180 186
e 180 209
e 180 211
e 181 182
e 181 186
e 181 191
e 181 198
e 181 202
e 181 213
e 181 216
e 181 226
e 181 231
e 181 232
e 181 242
e 181 247
e 182 193
e 182 219
e 182 234
e 182 236
e 182 237
e 182 249
e 183 195
e 183 209
e 183 218
e 183 231
e 183 234
e 183 239
e 183 241
e 184 231
e 184 243
e 185 208
e 185 213
e 185 220
e 185 222
e 185 237
e 185 242
e 185 244
e 185 248
e 186 190
e 186 202
e 186 216
e 186 230
e 186 241
e 187 200
e 187 201
e 187 239
e 187 240
e 187 245
e 187 248
e 188 191
e 188 209
e 188 232
e 188 247
e 189 208
e 189 216
e 189 239
e 189 244
e 189 249
e 190 193
e 190 201
e 190 202
e 190 212
e 190 226
e 190 230
e 190 231
e 190 249
e 191 203
e 191 206
e 191 211
e 191 214
e 191 226
e 191 227
e 191 231
e 191 234
e 192 200
e 192 205
e 192 208
e 192 212
e 192 215
e 192 230
e 192 231
e 192 232
e 193 207
e 193 215
e 193 220
e 193 227
e 193 230
e 193 232
e 194 210
e 194 235
e 194 241
e 194 243
e 195 202
e 195 203
e 195 209
e 195 216
e 195 222
e 195 237
e 195 248
e 196 208
e 196 228
e 196 238
e 196 239
e 197 235
e 198 205
e 198 231
e 198 239
e 199 218
e 199 223
e 199 224
e 199 227
e 199 235
e 200 213
e 200 220
e 200 222
e 200 229
e 200 245
e 200 246
e 201 207
e 201 213
e 201 217
e 201 235
e 201 244
e 202 225
e 202 232
e 202 247
e 203 221
e 204 243
e 204 245
e 204 247
e 204 248
e 205 207
e 205 219
e 205 229
e 205 230
e 205 238
e 206 222
e 206 227
e 206 229
e 206 232
e 206 248
e 207 221
e 208 215
e 208 236
e 208 245
e 209 221
e 209 224
e 209 228
e 210 225
e 210 226
e 210 228
e 210 239
e 211 217
e 211 221
e 211 228
e 211 235
e 211 241
e 212 214
e 212 218
e 212 219
e 212 220
e 212 225
e 212 234
e 213 222
e 213 223
e 213 226
e 214 224
e 214 228
e 214 231
e 214 233
e 214 241
e 214 246
e 215 216
e 215 226
e 215 236
e 215 238
e 216 225
e 216 239
e 216 244
e 217 233
e 217 242
e 217 247
e 218 227
e 218 235
e 218 241
e 218 245
e 218 247
e 219 223
e 219 243
e 219 246
e 220 228
e 221 232
e 221 240
e 222 223
e 222 225
e 222 230
e 222 237
e 222 239
e 222 240
e 223 233
e 223 234
e 223 240
e 224 235
e 224 241
e 224 243
e 225 229
e 225 232
e 225 234
e 225 237
e 226 245
e 227 242
e 229 230
e 229 245
e 229 247
e 230 236
e 230 239
e 230 244
e 231 234
e 231 237
e 231 239
e 231 242
e 231 246
e 232 242
e 232 243
e 232 248
e 233 248
e 234 235
e 234 245
e 235 236
e 236 240
e 236 241
e 237 240
e 238 247
e 238 248
e 239 244
e 239 247
e 240 243
e 240 248
e 242 244
e 244 246
e 247 249
